certificates/rado_a6_c236_N39.cnf
c Rad2 upper bound instance: x1 + 6*x2 - x3 = 236, interval [1,39]
p cnf 39 266
1 3 39 0
-1 -3 -39 0
2 4 39 0
-2 -4 -39 0
3 5 39 0
-3 -5 -39 0
4 6 39 0
-4 -6 -39 0
5 7 39 0
-5 -7 -39 0
6 8 39 0
-6 -8 -39 0
1 9 38 0
-1 -9 -38 0
7 9 39 0
-7 -9 -39 0
2 10 38 0
-2 -10 -38 0
8 10 39 0
-8 -10 -39 0
3 11 38 0
-3 -11 -38 0
9 11 39 0
-9 -11 -39 0
4 12 38 0
-4 -12 -38 0
10 12 39 0
-10 -12 -39 0
5 13 38 0
-5 -13 -38 0
11 13 39 0
-11 -13 -39 0
6 14 38 0
-6 -14 -38 0
12 14 39 0
-12 -14 -39 0
1 15 37 0
-1 -15 -37 0
7 15 38 0
-7 -15 -38 0
13 15 39 0
-13 -15 -39 0
2 16 37 0
-2 -16 -37 0
8 16 38 0
-8 -16 -38 0
14 16 39 0
-14 -16 -39 0
3 17 37 0
-3 -17 -37 0
9 17 38 0
-9 -17 -38 0
15 17 39 0
-15 -17 -39 0
4 18 37 0
-4 -18 -37 0
10 18 38 0
-10 -18 -38 0
16 18 39 0
-16 -18 -39 0
5 19 37 0
-5 -19 -37 0
11 19 38 0
-11 -19 -38 0
17 19 39 0
-17 -19 -39 0
6 20 37 0
-6 -20 -37 0
12 20 38 0
-12 -20 -38 0
18 20 39 0
-18 -20 -39 0
1 21 36 0
-1 -21 -36 0
7 21 37 0
-7 -21 -37 0
13 21 38 0
-13 -21 -38 0
19 21 39 0
-19 -21 -39 0
2 22 36 0
-2 -22 -36 0
8 22 37 0
-8 -22 -37 0
14 22 38 0
-14 -22 -38 0
20 22 39 0
-20 -22 -39 0
3 23 36 0
-3 -23 -36 0
9 23 37 0
-9 -23 -37 0
15 23 38 0
-15 -23 -38 0
21 23 39 0
-21 -23 -39 0
4 24 36 0
-4 -24 -36 0
10 24 37 0
-10 -24 -37 0
16 24 38 0
-16 -24 -38 0
22 24 39 0
-22 -24 -39 0
5 25 36 0
-5 -25 -36 0
11 25 37 0
-11 -25 -37 0
17 25 38 0
-17 -25 -38 0
23 25 39 0
-23 -25 -39 0
6 26 36 0
-6 -26 -36 0
12 26 37 0
-12 -26 -37 0
18 26 38 0
-18 -26 -38 0
24 26 39 0
-24 -26 -39 0
1 27 35 0
-1 -27 -35 0
7 27 36 0
-7 -27 -36 0
13 27 37 0
-13 -27 -37 0
19 27 38 0
-19 -27 -38 0
25 27 39 0
-25 -27 -39 0
2 28 35 0
-2 -28 -35 0
8 28 36 0
-8 -28 -36 0
14 28 37 0
-14 -28 -37 0
20 28 38 0
-20 -28 -38 0
26 28 39 0
-26 -28 -39 0
3 29 35 0
-3 -29 -35 0
9 29 36 0
-9 -29 -36 0
15 29 37 0
-15 -29 -37 0
21 29 38 0
-21 -29 -38 0
27 29 39 0
-27 -29 -39 0
4 30 35 0
-4 -30 -35 0
10 30 36 0
-10 -30 -36 0
16 30 37 0
-16 -30 -37 0
22 30 38 0
-22 -30 -38 0
28 30 39 0
-28 -30 -39 0
5 31 35 0
-5 -31 -35 0
11 31 36 0
-11 -31 -36 0
17 31 37 0
-17 -31 -37 0
23 31 38 0
-23 -31 -38 0
29 31 39 0
-29 -31 -39 0
6 32 35 0
-6 -32 -35 0
12 32 36 0
-12 -32 -36 0
18 32 37 0
-18 -32 -37 0
24 32 38 0
-24 -32 -38 0
30 32 39 0
-30 -32 -39 0
1 33 34 0
-1 -33 -34 0
7 33 35 0
-7 -33 -35 0
13 33 36 0
-13 -33 -36 0
19 33 37 0
-19 -33 -37 0
25 33 38 0
-25 -33 -38 0
31 33 39 0
-31 -33 -39 0
2 34 0
-2 -34 0
8 34 35 0
-8 -34 -35 0
14 34 36 0
-14 -34 -36 0
20 34 37 0
-20 -34 -37 0
26 34 38 0
-26 -34 -38 0
32 34 39 0
-32 -34 -39 0
3 34 35 0
-3 -34 -35 0
9 35 0
-9 -35 0
15 35 36 0
-15 -35 -36 0
21 35 37 0
-21 -35 -37 0
27 35 38 0
-27 -35 -38 0
33 35 39 0
-33 -35 -39 0
4 34 36 0
-4 -34 -36 0
10 35 36 0
-10 -35 -36 0
16 36 0
-16 -36 0
22 36 37 0
-22 -36 -37 0
28 36 38 0
-28 -36 -38 0
34 36 39 0
-34 -36 -39 0
5 34 37 0
-5 -34 -37 0
11 35 37 0
-11 -35 -37 0
17 36 37 0
-17 -36 -37 0
23 37 0
-23 -37 0
29 37 38 0
-29 -37 -38 0
35 37 39 0
-35 -37 -39 0
6 34 38 0
-6 -34 -38 0
12 35 38 0
-12 -35 -38 0
18 36 38 0
-18 -36 -38 0
24 37 38 0
-24 -37 -38 0
30 38 0
-30 -38 0
36 38 39 0
-36 -38 -39 0
1 33 39 0
-1 -33 -39 0
7 34 39 0
-7 -34 -39 0
13 35 39 0
-13 -35 -39 0
19 36 39 0
-19 -36 -39 0
25 37 39 0
-25 -37 -39 0
31 38 39 0
-31 -38 -39 0
37 39 0
-37 -39 0
