certificates/rado_a6_c236_N39.drat
-39 0
37 0
-23 0
21 0
25 0
-7 0
-35 0
-11 0
5 0
9 0
34 0
33 0
13 0
-19 0
-36 0
0
